1899, 0, 0, 75, 0
1900, 0, 1, 68, 1
1901, 0, 2, 51, 2
1902, 0, 3, 77, 3
1903, 1, 0, 69, 0
1904, 1, 1, 87, 3
1905, 1, 2, 35, 1
1906, 1, 3, 37, 2
1907, 2, 0, 57, 3
1908, 2, 1, 36, 2
1909, 2, 2, 77, 0
1910, 2, 3, 74, 1
1911, 3, 0, 33, 1
1912, 3, 1, 62, 0
1913, 3, 2, 43, 2
1914, 3, 3, 44, 3
